1000 1 29 1001 1001 1001 1001 1001 1001 1001 1001 1001 1001 1001 1001 1001 1001 1001 1001 1001 1001 1001 1001 1001 1001 1001 1001 1001 1001 1001 1001 1001 1001 1001 1001 1001 1001 1001 1001 1001 1001 1001 1001 1001 1001 1001 1001 1001 1001 1001 1001 1001 1001 1001 1001 1001 1001 1001 1001 1001 1001 -12 172 545 712 8 720 999 555 936 641 453 188 265 814 917 663 91 869 274 984 926 40 593 506 270 168 329 528 968 461 414 447 452 -97 565 50 180 656 37 41 944 214 116 806 716 839 961 552 3 705 243 55 860 595 161 544 828 440 272 564 100 618 378 812 470 906 399 256 -98 77 1000 749 455 499 164 909 201 70 678 124 876 918 685 465 451 894 701 910 416 700 52 11 351 395 617 779 704 899 454 409 759 302 -119 280 921 767 387 823 967 417 739 639 798 743 660 901 430 325 573 591 603 174 724 368 56 778 330 482 634 84 128 328 529 844 902 975 675 486 976 686 -155 495 134 49 34 471 468 772 908 818 824 171 485 791 583 396 986 832 725 65 144 192 30 766 372 410 954 179 439 48 66 796 81 139 384 -252 183 554 421 405 983 586 431 108 597 104 393 599 27 875 176 166 59 638 316 306 122 557 228 696 289 425 476 60 532 466 930 817 102 842 150 -308 189 859 587 14 862 881 474 604 285 987 94 538 196 401 567 142 872 194 648 781 973 668 755 728 202 35 671 884 882 865 959 478 -309 210 203 406 575 437 415 219 438 58 843 838 204 343 488 924 547 837 771 562 578 773 268 380 284 831 965 247 688 1 808 287 327 803 -318 826 279 929 338 625 9 981 810 238 448 630 218 305 227 744 927 42 782 614 851 969 653 998 200 847 326 692 834 354 687 979 845 577 157 -333 829 713 141 526 314 674 602 271 690 560 19 249 579 533 748 709 633 336 2 153 527 36 68 615 503 830 324 215 637 -346 833 138 363 821 622 606 7 212 109 483 156 978 619 92 790 193 632 996 186 938 928 737 22 950 568 710 304 39 154 6 113 784 522 626 -356 993 110 792 298 670 322 520 569 320 995 375 469 286 982 870 4 411 556 852 514 85 594 498 123 966 624 714 497 931 492 46 611 667 293 793 -382 903 442 277 504 943 337 777 850 855 551 694 666 563 424 994 627 923 373 191 742 548 795 290 880 866 90 612 344 101 25 740 571 642 925 949 -383 550 449 422 963 281 313 914 605 121 480 17 484 992 275 985 721 677 29 658 493 273 768 787 158 151 643 620 407 933 553 18 21 315 -389 423 745 654 64 729 213 662 267 946 543 756 136 723 717 570 487 69 321 813 980 581 173 616 75 646 402 349 276 883 592 190 355 871 588 -408 88 922 932 143 531 738 224 861 63 846 896 898 44 427 254 546 295 365 435 211 534 323 788 266 920 761 140 216 240 283 752 732 -445 942 733 509 394 130 580 230 359 722 303 446 106 269 385 159 362 195 400 26 854 347 536 682 169 939 53 246 185 649 221 702 819 163 934 645 -472 610 420 291 539 684 970 376 635 601 524 623 971 481 886 103 848 525 736 505 955 631 135 897 893 74 683 636 691 231 334 629 708 -511 170 296 111 590 867 513 236 559 890 542 900 292 428 680 126 61 282 878 23 794 519 764 245 775 348 47 807 962 958 182 600 -582 241 561 229 459 462 257 786 62 426 307 251 895 167 763 199 129 33 802 502 695 467 754 418 360 87 747 657 377 112 458 977 508 609 719 82 -589 835 689 86 889 132 566 339 825 413 475 669 512 697 501 262 148 541 800 436 879 54 79 537 357 523 679 93 311 16 260 507 805 105 916 89 -613 473 804 540 911 891 397 535 945 997 220 441 28 783 964 974 836 769 940 797 596 628 919 114 751 432 237 300 816 261 341 585 948 332 -650 457 107 518 935 576 598 165 863 727 294 223 607 510 693 205 331 655 496 244 952 515 259 706 864 912 297 621 849 715 381 443 699 13 -651 342 73 350 827 352 67 78 96 746 652 491 187 960 390 184 494 907 403 374 20 521 146 584 80 310 99 312 115 118 31 335 731 15 149 676 -665 913 391 905 647 937 255 758 811 398 915 76 429 57 234 162 340 71 24 750 741 358 198 51 868 412 517 734 464 947 841 317 248 152 698 644 -673 379 197 776 640 38 258 95 572 951 250 206 278 253 857 809 856 209 941 444 127 371 888 574 711 904 780 765 299 386 177 222 433 388 239 -718 659 801 822 877 760 137 181 608 10 892 753 217 664 707 762 288 703 972 83 232 799 125 263 145 226 235 956 207 160 45 225 873 367 -757 957 345 530 450 988 516 953 233 5 885 147 853 726 989 789 72 815 369 32 785 681 774 990 392 131 661 477 404 770 319 370 490 -858 460 419 730 364 991 820 117 500 479 178 874 242 434 735 463 133 840 549 361 175 558 301 456 489 120 366 887 43 672 208 353 264 0 
29.000000 -0.475488 3507.161313 3507.636800 -0.129474 3700.446085 3700.575559 -0.071068 3833.590006 3833.661074 -0.401754 3728.469617 3728.871371 -0.438226 3826.121305 3826.559532 -0.300508 3834.429802 3834.730310 -0.508883 3470.508339 3471.017222 -0.096118 3575.534940 3575.631058 17.276917 3792.517501 3775.240584 -0.128898 3185.499121 3185.628019 -0.992958 3850.181605 3851.174563 -0.263789 3848.501131 3848.764919 -0.316955 3812.358991 3812.675945 -0.647901 3730.194051 3730.841952 -0.619496 3907.509995 3908.129491 -0.384632 3654.481617 3654.866250 -0.060551 3891.830239 3891.890789 -0.677332 3553.677538 3554.354870 -0.046381 3424.639414 3424.685795 -0.020200 3902.472972 3902.493172 -0.817739 3868.778244 3869.595982 -0.622154 3532.293796 3532.915950 -0.409475 3891.159114 3891.568589 -0.815273 3704.918838 3705.734111 -0.230896 3885.312762 3885.543658 -0.812412 3807.343621 3808.156033 -0.612124 3861.908790 3862.520913 -0.200821 3746.099269 3746.300090 -0.290096 3684.926630 3685.216726 1000.000000 0.000000 0.000000 0.000000 0.000000 0.000000 0.000000 0.000000 0.000000 0.000000 0.000000 0.000000 0.000000 0.000000 0.000000 0.000000 0.000000 0.000000 0.000000 0.000000 0.000000 0.000000 0.000000 0.000000 0.000000 0.000000 0.000000 0.000000 0.000000 0.000000 0.000000 0.000000 0.000000 0.000000 0.000000 0.000000 0.000000 0.000000 0.000000 0.000000 0.000000 0.000000 0.000000 0.000000 0.000000 0.000000 0.000000 0.000000 0.000000 0.000000 0.000000 0.000000 0.000000 0.000000 0.000000 0.000000 0.000000 0.000000 0.000000 0.000000 0.000000 25.602250 0.000000 0.000000 0.000000 0.000000 0.000000 0.000000 0.000000 0.000000 0.000000 0.000000 0.000000 0.000000 0.000000 0.000000 0.000000 0.000000 0.000000 0.000000 0.000000 0.000000 0.000000 0.000000 0.000000 0.000000 0.000000 0.000000 0.000000 0.000000 0.000000 0.000000 0.000000 0.000000 0.000000 0.000000 0.000000 0.000000 0.000000 0.000000 0.000000 0.000000 0.000000 0.000000 0.000000 0.000000 0.000000 0.000000 0.000000 0.000000 0.000000 0.000000 0.000000 0.000000 0.000000 0.000000 0.000000 0.000000 0.000000 0.000000 0.000000 0.000000 11.739534 0.000000 0.000000 0.000000 0.000000 0.000000 0.000000 0.000000 0.000000 0.000000 0.000000 0.000000 0.000000 0.000000 0.000000 0.000000 0.000000 0.000000 0.000000 0.000000 0.000000 0.000000 0.000000 0.000000 0.000000 0.000000 0.000000 0.000000 0.000000 0.000000 0.000000 0.000000 0.000000 0.000000 0.000000 0.000000 0.000000 0.000000 0.000000 0.000000 0.000000 0.000000 0.000000 0.000000 0.000000 0.000000 0.000000 0.000000 0.000000 0.000000 0.000000 0.000000 0.000000 0.000000 0.000000 0.000000 0.000000 0.000000 0.000000 0.000000 0.000000 0.000000 0.000000 0.000000 0.000000 0.000000 0.000000 0.000000 0.000000 0.000000 0.000000 0.000000 0.000000 0.000000 0.000000 0.000000 0.000000 0.000000 0.000000 0.000000 0.000000 0.000000 0.000000 0.000000 0.000000 0.000000 0.000000 0.000000 0.000000 0.000000 0.000000 0.000000 0.000000 0.000000 0.000000 0.000000 0.000000 0.000000 0.000000 0.000000 0.000000 0.000000 0.000000 0.000000 0.000000 0.000000 0.000000 0.000000 0.000000 0.000000 0.000000 0.000000 0.000000 0.000000 0.000000 0.000000 0.000000 0.000000 0.000000 0.000000 0.000000 0.000000 0.000000 0.000000 0.000000 0.000000 0.000000 0.000000 0.000000 0.000000 0.000000 0.000000 0.000000 0.000000 0.000000 0.000000 0.000000 0.000000 0.000000 0.000000 0.000000 0.000000 0.000000 0.000000 0.000000 0.000000 0.000000 0.000000 0.000000 0.000000 0.000000 0.000000 0.000000 0.000000 0.000000 0.000000 0.000000 0.000000 0.000000 0.000000 0.000000 0.000000 0.000000 0.000000 0.000000 0.000000 0.000000 0.000000 0.000000 0.000000 0.000000 0.000000 0.000000 0.000000 0.000000 0.000000 0.000000 0.000000 0.000000 0.000000 0.000000 0.000000 0.000000 0.000000 0.000000 0.000000 0.000000 0.000000 0.000000 0.000000 0.000000 0.000000 0.887558 0.000000 0.000000 0.000000 0.000000 0.000000 0.000000 0.000000 0.000000 0.000000 0.000000 0.000000 0.000000 0.000000 0.000000 0.000000 0.000000 0.000000 0.000000 0.000000 0.000000 0.000000 0.000000 0.000000 0.000000 0.000000 0.000000 0.000000 0.000000 0.000000 0.000000 0.000000 0.000000 0.000000 0.000000 0.000000 0.000000 0.000000 0.000000 0.000000 0.000000 0.000000 0.000000 0.000000 0.000000 0.000000 0.000000 0.000000 0.000000 0.000000 0.000000 0.000000 0.000000 0.000000 0.000000 0.000000 0.000000 0.000000 0.000000 0.000000 0.000000 0.000000 0.000000 0.000000 0.000000 0.000000 0.000000 0.000000 0.000000 0.000000 0.000000 0.000000 0.000000 0.000000 0.000000 0.000000 0.000000 0.000000 0.000000 0.000000 0.000000 0.000000 0.000000 0.000000 0.000000 0.000000 0.000000 0.000000 0.000000 0.000000 16.258016 0.000000 0.000000 0.000000 0.000000 0.000000 0.000000 0.000000 0.000000 0.000000 0.000000 0.000000 0.000000 0.000000 0.000000 0.000000 0.000000 11.664002 0.000000 0.000000 0.000000 0.000000 0.000000 0.000000 0.000000 0.000000 0.000000 0.000000 0.000000 0.000000 0.000000 0.000000 0.000000 0.000000 0.000000 0.000000 0.000000 0.000000 0.000000 0.000000 0.000000 0.000000 0.000000 0.000000 0.000000 0.000000 0.000000 0.000000 0.000000 0.000000 0.000000 0.000000 0.000000 0.000000 0.000000 0.000000 0.000000 0.000000 0.000000 0.000000 0.000000 0.000000 0.000000 0.000000 0.000000 0.000000 0.000000 0.000000 0.000000 0.000000 0.000000 0.000000 0.000000 0.000000 0.000000 0.000000 0.000000 0.000000 0.000000 0.000000 0.000000 0.000000 0.000000 0.000000 0.000000 0.000000 0.000000 0.000000 0.000000 0.000000 0.000000 0.000000 0.000000 0.000000 0.000000 0.000000 0.000000 0.000000 0.000000 0.000000 0.000000 0.000000 0.000000 0.000000 0.000000 0.000000 0.000000 0.000000 0.000000 0.000000 0.000000 0.000000 0.000000 0.000000 0.000000 0.000000 0.000000 0.000000 0.000000 0.000000 0.000000 0.000000 0.000000 0.000000 0.000000 0.000000 0.000000 0.000000 0.000000 0.000000 0.000000 0.000000 10.935061 0.000000 0.000000 0.000000 0.000000 0.000000 0.000000 0.000000 0.000000 0.000000 0.000000 0.000000 0.000000 0.000000 0.000000 0.000000 0.000000 0.000000 0.000000 0.000000 0.000000 0.000000 0.000000 0.000000 0.000000 0.000000 0.000000 0.000000 0.000000 0.000000 0.000000 0.000000 0.000000 0.000000 0.000000 0.000000 0.000000 0.000000 0.000000 0.000000 0.000000 0.000000 0.000000 0.000000 0.000000 0.000000 0.000000 0.000000 0.000000 0.000000 0.000000 0.000000 0.000000 0.000000 0.000000 0.000000 0.000000 0.000000 0.000000 0.000000 0.000000 0.000000 0.000000 0.000000 0.000000 0.000000 0.000000 0.000000 0.000000 0.000000 0.000000 0.000000 0.000000 0.000000 0.000000 0.000000 0.000000 0.000000 0.000000 0.000000 0.000000 20.448959 0.000000 0.000000 0.000000 0.000000 0.000000 0.000000 0.000000 0.000000 0.000000 0.000000 0.000000 0.000000 0.000000 0.000000 0.000000 0.000000 0.000000 0.000000 0.000000 0.000000 0.000000 0.000000 0.000000 0.000000 0.000000 0.000000 0.000000 0.000000 0.000000 0.000000 0.000000 0.000000 0.000000 0.000000 0.000000 0.000000 0.000000 0.000000 0.000000 0.000000 0.000000 0.000000 0.000000 0.000000 0.000000 0.000000 0.000000 0.000000 0.000000 0.000000 0.000000 0.000000 0.000000 0.000000 0.000000 0.000000 0.000000 0.000000 0.000000 0.000000 0.000000 0.000000 0.000000 0.000000 0.000000 0.000000 0.000000 0.000000 0.000000 0.000000 0.000000 0.000000 0.000000 0.000000 0.000000 0.000000 0.000000 0.000000 0.000000 0.000000 0.000000 0.000000 0.000000 0.000000 0.000000 0.000000 0.000000 0.000000 0.000000 0.000000 0.000000 0.000000 0.000000 0.000000 0.000000 0.000000 0.000000 0.000000 0.000000 0.000000 0.000000 0.000000 0.000000 0.000000 0.000000 0.000000 0.000000 0.000000 0.000000 0.000000 0.000000 0.000000 0.000000 0.000000 0.000000 0.000000 0.000000 0.000000 0.000000 0.000000 0.000000 0.000000 0.000000 0.000000 0.000000 0.000000 0.000000 0.000000 0.000000 0.000000 0.000000 0.000000 0.000000 0.000000 0.000000 0.000000 0.000000 0.000000 0.000000 0.000000 0.000000 0.000000 0.000000 0.000000 0.000000 0.000000 0.000000 0.000000 0.000000 0.000000 0.000000 0.000000 0.000000 0.000000 0.000000 0.000000 0.000000 0.000000 0.000000 0.000000 0.000000 0.000000 0.000000 0.000000 0.000000 0.000000 0.000000 0.000000 0.000000 0.000000 0.000000 0.000000 0.000000 0.000000 0.000000 0.000000 0.000000 0.000000 0.000000 0.000000 0.000000 0.000000 0.000000 0.000000 0.000000 0.000000 0.000000 0.000000 0.000000 0.000000 0.000000 0.000000 0.000000 0.000000 0.000000 0.000000 0.000000 0.000000 0.000000 0.000000 0.000000 0.000000 0.000000 0.000000 0.000000 0.000000 0.000000 0.000000 0.000000 0.000000 0.000000 0.000000 0.000000 0.000000 0.000000 0.000000 0.000000 0.000000 0.000000 0.000000 0.000000 0.000000 0.000000 0.000000 0.000000 0.000000 0.000000 0.000000 0.000000 0.000000 21.948484 0.000000 0.000000 0.000000 0.000000 0.000000 0.000000 0.000000 0.000000 0.000000 0.000000 0.000000 0.000000 0.000000 0.000000 0.000000 0.000000 0.000000 0.000000 0.000000 0.000000 0.000000 0.000000 0.000000 0.000000 0.000000 0.000000 0.000000 0.000000 0.000000 0.000000 0.000000 0.000000 0.000000 0.000000 0.000000 0.000000 0.000000 0.000000 0.000000 0.000000 0.000000 0.000000 0.000000 0.000000 0.000000 0.000000 0.000000 0.000000 0.000000 0.000000 0.000000 0.000000 0.000000 0.000000 0.000000 0.000000 0.000000 0.000000 0.000000 5.078179 0.000000 0.000000 0.000000 0.000000 0.000000 0.000000 0.000000 0.000000 0.000000 0.000000 0.000000 0.000000 0.000000 0.000000 0.000000 0.000000 0.000000 0.000000 0.000000 0.000000 0.000000 0.000000 0.000000 0.000000 0.000000 0.000000 0.000000 0.000000 0.000000 0.000000 0.000000 0.000000 0.000000 0.000000 0.000000 0.000000 0.000000 0.000000 0.000000 0.000000 0.000000 0.000000 0.000000 0.000000 0.000000 0.000000 0.000000 0.000000 0.000000 0.000000 0.000000 0.000000 0.000000 0.000000 0.000000 0.000000 0.000000 0.000000 0.000000 0.000000 0.000000 0.000000 0.000000 0.000000 0.000000 0.000000 0.000000 0.000000 0.000000 0.000000 0.000000 0.000000 0.000000 0.000000 0.000000 0.000000 0.000000 0.000000 0.000000 0.000000 0.000000 0.000000 0.000000 0.000000 0.000000 0.000000 0.000000 0.000000 0.000000 0.000000 0.000000 0.000000 




Total_objective=
17882.419287
Best_SOL_TIME=
0.000000
BEST_KNOWN=
1073741824.000
ComputeTime=
-3689348814741910.50
Route_num=
29
Routes_len=
17882.419
Total_travel_time=
17882.42
Total_service_time=
108006.98
Total_early_time=
124.56
Total_late_time=
0.00
